
Starting CP-SAT solver v9.15.6755
Parameters: random_seed: 2026074442 max_time_in_seconds: 7555.7930610450021 log_search_progress: true cp_model_presolve: true linearization_level: 2 num_search_workers: 4 cp_model_probing_level: 2 symmetry_level: 2

Initial satisfaction model '': (model_fingerprint: 0xdf80aa2853c51b23)
#Variables: 724 (604 primary variables)
  - 724 Booleans in [0,1]
#kBoolAnd: 110 (#enforced: 110) (#literals: 330)
#kBoolOr: 110 (#enforced: 110) (#literals: 220)
#kExactlyOne: 87 (#literals: 261)
#kLinear1: 36 (#enforced: 6)
#kLinear2: 336 (#enforced: 336) (#complex_domain: 110)
#kLinear3: 1'600 (#enforced: 6)
#kLinearN: 1'132 (#enforced: 243) (#terms: 9'111)

Starting presolve at 0.00s
  7.33e-04s  0.00e+00d  [DetectDominanceRelations] 
  9.06e-03s  0.00e+00d  [PresolveToFixPoint] #num_loops=3 #num_dual_strengthening=1 
  3.79e-05s  0.00e+00d  [ExtractEncodingFromLinear] #potential_supersets=100 
  3.17e-04s  0.00e+00d  [DetectDuplicateColumns] 
  1.06e-04s  0.00e+00d  [DetectDuplicateConstraints] #duplicates=9 
[Symmetry] Graph for symmetry has 4'855 nodes and 15'612 arcs.
[Symmetry] Symmetry computation done. time: 0.00135892 dtime: 0.00183339
[SAT presolve] num removable Booleans: 220 / 622
[SAT presolve] num trivial clauses: 0
[SAT presolve] [0s] clauses:2'708 literals:7'370 vars:506 one_side_vars:66 simple_definition:1 singleton_clauses:0
[SAT presolve] [0.000235662s] clauses:2'707 literals:7'363 vars:506 one_side_vars:66 simple_definition:1 singleton_clauses:0
[SAT presolve] [0.000689771s] clauses:2'230 literals:6'560 vars:380 one_side_vars:71 simple_definition:67 singleton_clauses:0
  1.22e-04s  0.00e+00d  [DetectDuplicateConstraintsWithDifferentEnforcements] #without_enforcements=4 
  5.62e-03s  2.29e-03d  [Probe] #probed=1'288 #fixed_bools=12 #equiv=8 #new_binary_clauses=1'129 
  5.00e-04s  3.15e-04d  [MaxClique] Merged 589 constraints with 1'340 literals into 517 constraints with 1'221 literals
  9.35e-04s  0.00e+00d  [DetectDominanceRelations] 
  3.26e-03s  0.00e+00d  [PresolveToFixPoint] #num_loops=1 #num_dual_strengthening=1 
  1.21e-03s  0.00e+00d  [ProcessAtMostOneAndLinear] 
  1.03e-04s  0.00e+00d  [DetectDuplicateConstraints] #duplicates=5 
  8.41e-05s  0.00e+00d  [DetectDuplicateConstraintsWithDifferentEnforcements] 
  4.25e-03s  1.12e-04d  [DetectDominatedLinearConstraints] #relevant_constraints=819 #num_inclusions=548 #num_redundant=6 
  1.24e-04s  0.00e+00d  [DetectDifferentVariables] 
  8.19e-04s  8.10e-05d  [ProcessSetPPC] #relevant_constraints=2'974 #num_inclusions=71 
  2.91e-04s  3.34e-05d  [TransformClausesToExactlyOne] #num_amos=504 #num_clauses=1'661 #num_checked=1'661 
  4.90e-05s  0.00e+00d  [DetectEncodedComplexDomains] 
  3.13e-05s  9.00e-08d  [FindAlmostIdenticalLinearConstraints] #num_tested_pairs=1 
  9.66e-04s  1.33e-03d  [FindBigAtMostOneAndLinearOverlap] 
  1.46e-03s  1.14e-03d  [FindBigVerticalLinearOverlap] #blocks=2 #saved_nz=62 
  3.84e-04s  6.42e-04d  [FindBigHorizontalLinearOverlap] #linears=454 
  3.34e-04s  2.68e-05d  [MergeClauses] #num_collisions=18 #num_merges=18 #num_saved_literals=90 
  9.04e-04s  0.00e+00d  [DetectDominanceRelations] 
  3.17e-03s  0.00e+00d  [PresolveToFixPoint] #num_loops=2 #num_dual_strengthening=1 
  8.76e-04s  0.00e+00d  [DetectDominanceRelations] 
  3.07e-03s  0.00e+00d  [PresolveToFixPoint] #num_loops=1 #num_dual_strengthening=1 
  2.22e-04s  0.00e+00d  [DetectDuplicateColumns] 
  9.31e-05s  0.00e+00d  [DetectDuplicateConstraints] 
[Symmetry] Graph for symmetry has 4'294 nodes and 13'447 arcs.
[Symmetry] Symmetry computation done. time: 0.00103034 dtime: 0.0013638
[SAT presolve] num removable Booleans: 93 / 475
[SAT presolve] num trivial clauses: 0
[SAT presolve] [0s] clauses:2'105 literals:6'242 vars:449 one_side_vars:147 simple_definition:82 singleton_clauses:0
[SAT presolve] [0.000244044s] clauses:2'105 literals:6'057 vars:449 one_side_vars:196 simple_definition:66 singleton_clauses:0
[SAT presolve] [0.000329162s] clauses:2'099 literals:6'050 vars:447 one_side_vars:197 simple_definition:61 singleton_clauses:0
  1.53e-04s  0.00e+00d  [DetectDuplicateConstraintsWithDifferentEnforcements] 
  5.79e-03s  1.97e-03d  [Probe] #probed=1'276 #new_binary_clauses=711 
  4.31e-04s  3.25e-04d  [MaxClique] Merged 500 constraints with 1'117 literals into 491 constraints with 1'115 literals
  9.17e-04s  0.00e+00d  [DetectDominanceRelations] 
  3.12e-03s  0.00e+00d  [PresolveToFixPoint] #num_loops=1 #num_dual_strengthening=1 
  1.12e-03s  0.00e+00d  [ProcessAtMostOneAndLinear] 
  1.27e-04s  0.00e+00d  [DetectDuplicateConstraints] 
  8.58e-05s  0.00e+00d  [DetectDuplicateConstraintsWithDifferentEnforcements] 
  2.31e-03s  7.76e-05d  [DetectDominatedLinearConstraints] #relevant_constraints=816 #num_inclusions=410 
  1.43e-04s  0.00e+00d  [DetectDifferentVariables] 
  7.62e-04s  7.41e-05d  [ProcessSetPPC] #relevant_constraints=3'010 #num_inclusions=86 
  3.24e-04s  3.27e-05d  [TransformClausesToExactlyOne] #num_amos=491 #num_clauses=1'658 #num_checked=1'658 
  5.63e-05s  0.00e+00d  [DetectEncodedComplexDomains] 
  3.55e-05s  2.00e-07d  [FindAlmostIdenticalLinearConstraints] #num_tested_pairs=2 
  9.37e-04s  1.24e-03d  [FindBigAtMostOneAndLinearOverlap] 
  1.40e-03s  1.07e-03d  [FindBigVerticalLinearOverlap] #blocks=1 #saved_nz=37 
  3.80e-04s  6.10e-04d  [FindBigHorizontalLinearOverlap] #linears=452 
  3.36e-04s  2.58e-05d  [MergeClauses] #num_collisions=80 #num_merges=80 #num_saved_literals=221 
  9.10e-04s  0.00e+00d  [DetectDominanceRelations] 
  3.15e-03s  0.00e+00d  [PresolveToFixPoint] #num_loops=2 #num_dual_strengthening=1 
  8.89e-04s  0.00e+00d  [DetectDominanceRelations] 
  3.18e-03s  0.00e+00d  [PresolveToFixPoint] #num_loops=1 #num_dual_strengthening=1 
  2.21e-04s  0.00e+00d  [DetectDuplicateColumns] 
  8.94e-05s  0.00e+00d  [DetectDuplicateConstraints] 
[Symmetry] Graph for symmetry has 4'228 nodes and 13'056 arcs.
[Symmetry] Symmetry computation done. time: 0.00090331 dtime: 0.00130433
[SAT presolve] num removable Booleans: 91 / 473
[SAT presolve] num trivial clauses: 0
[SAT presolve] [0s] clauses:2'087 literals:6'024 vars:447 one_side_vars:197 simple_definition:61 singleton_clauses:0
[SAT presolve] [0.000212889s] clauses:2'087 literals:6'024 vars:447 one_side_vars:197 simple_definition:61 singleton_clauses:0
[SAT presolve] [0.000294701s] clauses:2'087 literals:6'024 vars:447 one_side_vars:197 simple_definition:61 singleton_clauses:0
  2.24e-04s  0.00e+00d  [DetectDuplicateConstraintsWithDifferentEnforcements] 
  5.66e-03s  1.94e-03d  [Probe] #probed=1'276 #new_binary_clauses=711 
  4.42e-04s  3.17e-04d  [MaxClique] 
  9.34e-04s  0.00e+00d  [DetectDominanceRelations] 
  3.24e-03s  0.00e+00d  [PresolveToFixPoint] #num_loops=1 #num_dual_strengthening=1 
  1.13e-03s  0.00e+00d  [ProcessAtMostOneAndLinear] 
  1.12e-04s  0.00e+00d  [DetectDuplicateConstraints] 
  9.31e-05s  0.00e+00d  [DetectDuplicateConstraintsWithDifferentEnforcements] 
  1.47e-03s  6.58e-05d  [DetectDominatedLinearConstraints] #relevant_constraints=817 #num_inclusions=352 
  1.58e-04s  0.00e+00d  [DetectDifferentVariables] 
  7.63e-04s  7.16e-05d  [ProcessSetPPC] #relevant_constraints=3'006 #num_inclusions=74 
  3.47e-04s  3.27e-05d  [TransformClausesToExactlyOne] #num_amos=489 #num_clauses=1'658 #num_checked=1'658 
  5.09e-05s  0.00e+00d  [DetectEncodedComplexDomains] 
  4.17e-05s  1.00e-07d  [FindAlmostIdenticalLinearConstraints] #num_tested_pairs=1 
  9.29e-04s  1.19e-03d  [FindBigAtMostOneAndLinearOverlap] 
  1.38e-03s  1.07e-03d  [FindBigVerticalLinearOverlap] 
  3.84e-04s  6.10e-04d  [FindBigHorizontalLinearOverlap] #linears=452 
  3.45e-04s  2.58e-05d  [MergeClauses] #num_collisions=80 #num_merges=80 #num_saved_literals=221 
  9.34e-04s  0.00e+00d  [DetectDominanceRelations] 
  3.19e-03s  0.00e+00d  [PresolveToFixPoint] #num_loops=1 #num_dual_strengthening=1 
  2.19e-05s  0.00e+00d  [MergeNoOverlap] 
  2.01e-05s  0.00e+00d  [MergeNoOverlap2D] 

Presolve summary:
  - 34 affine relations were detected.
  - rule 'TODO dual: only one blocking constraint?' was applied 888 times.
  - rule 'TODO dual: tighten at most one' was applied 8 times.
  - rule 'TODO linear inclusion: superset is equality' was applied 365 times.
  - rule 'affine: new relation' was applied 34 times.
  - rule 'at_most_one: removed literals' was applied 71 times.
  - rule 'at_most_one: size one' was applied 70 times.
  - rule 'at_most_one: transformed into max clique' was applied 2 times.
  - rule 'bool_or: implications' was applied 50 times.
  - rule 'bool_or: only one literal' was applied 12 times.
  - rule 'bool_or: removed enforcement literal' was applied 557 times.
  - rule 'deductions: 775 stored' was applied 1 time.
  - rule 'duplicate: merged rhs of linear constraint' was applied 13 times.
  - rule 'duplicate: removed constraint' was applied 14 times.
  - rule 'duplicate: removed enforced constraint' was applied 4 times.
  - rule 'enforcement: false literal' was applied 37 times.
  - rule 'enforcement: true literal' was applied 12 times.
  - rule 'exactly_one: removed literals' was applied 29 times.
  - rule 'exactly_one: satisfied' was applied 7 times.
  - rule 'exactly_one: singleton' was applied 3 times.
  - rule 'exactly_one: size two' was applied 26 times.
  - rule 'exactly_one: x and not(x)' was applied 6 times.
  - rule 'incompatible linear: add implication' was applied 126 times.
  - rule 'linear + amo: empty after processing' was applied 5 times.
  - rule 'linear + amo: extracted enforcement literal' was applied 50 times.
  - rule 'linear + amo: trivial linear constraint' was applied 2 times.
  - rule 'linear inclusion: redundant containing constraint' was applied 2 times.
  - rule 'linear inclusion: redundant included constraint' was applied 3 times.
  - rule 'linear inclusion: sparsify superset' was applied 1 time.
  - rule 'linear matrix: common vertical rectangle' was applied 3 times.
  - rule 'linear1: x in domain' was applied 30 times.
  - rule 'linear2: convert ax + by != cte to clauses' was applied 242 times.
  - rule 'linear2: convert implied ax + by == cte to clauses' was applied 114 times.
  - rule 'linear2: implied ax + by = cte has only one solution' was applied 8 times.
  - rule 'linear: always true' was applied 431 times.
  - rule 'linear: coefficient strengthening by increasing it' was applied 2 times.
  - rule 'linear: empty' was applied 1 time.
  - rule 'linear: extracted at most one (max)' was applied 1 time.
  - rule 'linear: fixed or dup variables' was applied 879 times.
  - rule 'linear: negative clause' was applied 1'287 times.
  - rule 'linear: negative reified and' was applied 74 times.
  - rule 'linear: never in domain' was applied 5 times.
  - rule 'linear: positive at most one' was applied 48 times.
  - rule 'linear: positive equal one' was applied 1 time.
  - rule 'linear: reduced variable domains' was applied 4 times.
  - rule 'linear: remapped using affine relations' was applied 22 times.
  - rule 'presolve: 86 unused variables removed.' was applied 1 time.
  - rule 'presolve: iteration' was applied 3 times.
  - rule 'probing: bool_or reduced to implication' was applied 28 times.
  - rule 'probing: simplified clauses' was applied 12 times.
  - rule 'setppc: bool_or in at_most_one' was applied 6 times.
  - rule 'setppc: exactly_one included in linear' was applied 1 time.
  - rule 'setppc: reduced linear coefficients' was applied 1 time.
  - rule 'setppc: removed dominated constraints' was applied 89 times.

Presolved satisfaction model '': (model_fingerprint: 0xd327917afa137ae3)
#Variables: 476 (410 primary variables)
  - 473 Booleans in [0,1]
  - 3 in [0,2]
#kAtMostOne: 60 (#literals: 237)
#kBoolAnd: 264 (#enforced: 264) (#literals: 693)
#kBoolAndClauses: 80 (#enforced: 80 #multi: 80) (#literals: 381)
#kBoolOr: 1'498 (#literals: 4'564)
#kExactlyOne: 51 (#literals: 204)
#kLinear3: 9 (#enforced: 6)
#kLinearN: 808 (#enforced: 120) (#terms: 5'664)
[Symmetry] Graph for symmetry has 3'977 nodes and 13'056 arcs.
[Symmetry] Symmetry computation done. time: 0.000826737 dtime: 0.00128927

Preloading model.
#Model   0.10s var:476/476 constraints:2770/2770

Starting search at 0.10s with 4 workers.
3 full problem subsolvers: [default_lp, max_lp, no_lp]
1 first solution subsolver: [fj]
2 interleaved subsolvers: [feasibility_pump, rins/rens]
2 helper subsolvers: [neighborhood_helper, synchronization_agent]

#Model  41.67s var:475/476 constraints:2768/2770
#Model 116.18s var:474/476 constraints:2750/2770
#Model 4653.64s var:473/476 constraints:2732/2770
#Model 4655.05s var:472/476 constraints:2712/2770
#Model 4746.98s var:471/476 constraints:2694/2770
#Model 4755.82s var:469/476 constraints:2658/2770
#Model 4759.67s var:468/476 constraints:2642/2770
#Model 4761.29s var:461/476 constraints:2547/2770
#Model 4761.33s var:459/476 constraints:2527/2770
#Model 4761.51s var:421/476 constraints:2063/2770
#Done  4761.53s no_lp

Task timing                   n [     min,      max]      avg      dev     time         n [     min,      max]      avg      dev    dtime
        'default_lp':         1 [   1.32h,    1.32h]    1.32h   0.00ns    1.32h         2 [  2.14ms,    1.24h]   37.22m   37.22m    1.24h
  'feasibility_pump':     23594 [811.76us, 116.36ms]   1.67ms 825.48us   39.44s     23593 [275.63us,  99.02ms] 281.84us 642.85us    6.65s
                'fj':     18043 [ 91.63ms, 345.90ms] 130.77ms   9.20ms   39.32m     18043 [100.00ms, 100.16ms] 100.02ms  14.94us   30.08m
            'max_lp':         1 [   1.32h,    1.32h]    1.32h   0.00ns    1.32h         2 [ 81.84ms,    1.76h]   52.67m   52.67m    1.76h
             'no_lp':         1 [   1.32h,    1.32h]    1.32h   0.00ns    1.32h         2 [  1.80ms,    2.50h]    1.25h    1.25h    2.50h
         'rins/rens':     21609 [927.59us, 192.41ms] 109.19ms  40.31ms   39.32m     21604 [187.57us, 100.35ms]  68.45ms  37.00ms   24.65m

Search stats     Bools   Conflicts    Branches  Restarts  BacktrackToRoot   Backtrack     BoolPropag  IntegerPropag
  'default_lp':    473     401'748  10'547'434     2'030        1'579'247   2'372'062    108'495'897    133'700'558
      'max_lp':    473     213'700  13'299'114       937        1'945'597   2'627'270    132'497'561    168'793'669
       'no_lp':    473  33'731'755  43'467'564   108'911          708'303  34'077'787  2'856'579'445    738'294'957

SAT formula      Fixed  Equiv  Total  VarLeft  BinaryClauses  PermanentClauses  TemporaryClauses
  'default_lp':      4      1    473      468          2'882            46'401             4'261
      'max_lp':      5      1    473      467          2'876            43'232             1'910
       'no_lp':    166      1    473      306          3'070            79'218             1'872

SAT stats        ClassicMinim   LitRemoved  LitRemovedBinary   LitLearned  LitForgotten    Subsumed
  'default_lp':       353'657    4'490'422         2'148'958   11'340'999     7'409'808     153'804
      'max_lp':       185'885    2'553'979         1'023'293    5'165'481     2'959'201      76'389
       'no_lp':    30'628'501  534'199'195       131'900'954  778'477'927   593'330'748  10'304'677

Vivification       Clauses   Decisions  LitTrue  Subsumed  LitRemoved  DecisionReused  Conflicts
  'default_lp':  1'572'317   9'661'582        0    25'402     278'978         454'832      3'037
      'max_lp':  1'844'001  12'471'555        0    27'954     308'307         509'126      3'080
       'no_lp':    485'628   4'176'492        5    30'318     411'389         120'117      1'728

Clause deletion    at_true  l_and_not(l)  to_binary  sub_conflict  sub_extra  sub_decisions  sub_eager  sub_vivify  sub_probing  sub_inpro  blocked  eliminated   forgotten    promoted   conflicts
    'default_lp':    1'126             0          8       151'559        964          6'332      2'245      25'402       14'232     38'181        0           0     207'761     777'342     401'748
        'max_lp':    2'927             0         15        75'346        541          2'435      1'043      27'954       16'768     38'721        0           0     100'237     423'748     213'700
         'no_lp':   56'704             0        115    10'120'454     55'362        512'178    184'223      30'318       40'503    209'353        0           0  22'450'429  75'257'673  33'731'755

Lp stats         Component  Iterations  AddedCuts  OPTIMAL  DUAL_F.  DUAL_U.
  'default_lp':          1  57'001'264    133'862  556'908        2  332'073
      'max_lp':          1  29'582'413    127'747   66'848  167'153   70'704

Lp dimension        Final dimension of first component
  'default_lp':    266 rows, 342 columns, 2323 entries
      'max_lp':  1543 rows, 476 columns, 40068 entries

Lp debug         CutPropag  CutEqPropag   Adjust  Overflow        Bad  BadScaling
  'default_lp':          0          166  332'072         0  3'977'716           0
      'max_lp':          0        1'198   70'698         0  3'831'063           0

Lp pool          Constraints  Updates  Simplif  Merged  Shortened  Split  Strengthened        Cuts/Call
  'default_lp':       10'643   24'910        0       0        387      0             0  133'862/211'434
      'max_lp':       12'845   34'905        0       1         59      0         2'946  127'747/195'876

Lp Cut            default_lp   max_lp
          CG_FF:       1'810      137
           CG_K:         959        9
          CG_KL:         885        -
           CG_R:       1'958       92
          CG_RB:         125       22
         CG_RBP:          22        1
         Clique:           -      271
             IB:          81        7
       MIR_1_FF:         867    1'145
        MIR_1_K:         154       30
       MIR_1_KL:         631       36
        MIR_1_R:         758      487
       MIR_1_RB:           3        3
      MIR_1_RBP:           3        1
      MIR_1_RLT:           -   13'991
       MIR_2_FF:         768    1'183
        MIR_2_K:         154      201
       MIR_2_KL:         441      121
        MIR_2_R:       1'027    1'063
       MIR_2_RB:         126       12
      MIR_2_RBP:          49        3
       MIR_3_FF:         387      308
        MIR_3_K:          67       41
       MIR_3_KL:         145       32
        MIR_3_R:         510      375
       MIR_3_RB:          69       14
      MIR_3_RBP:          34        5
       MIR_4_FF:         130       87
        MIR_4_K:          24       14
       MIR_4_KL:          45        6
        MIR_4_R:         349      293
       MIR_4_RB:          51       20
      MIR_4_RBP:          11        4
       MIR_5_FF:          30       29
        MIR_5_K:           4        6
       MIR_5_KL:           5        2
        MIR_5_R:         205      258
       MIR_5_RB:          44       20
      MIR_5_RBP:           8        4
       MIR_6_FF:          18       21
        MIR_6_K:          11        4
       MIR_6_KL:           1        1
        MIR_6_R:         158      238
       MIR_6_RB:          25       18
      MIR_6_RBP:           8        2
   ZERO_HALF_FF:         525      990
    ZERO_HALF_K:          99       77
   ZERO_HALF_KL:         167        2
    ZERO_HALF_R:     119'844  106'039
   ZERO_HALF_RB:          31       13
  ZERO_HALF_RBP:          36        9

LNS stats       Improv/Calls  Closed  Difficulty  TimeLimit
  'rins/rens':   21606/21606     50%    7.41e-01       0.10

LS stats                                    Batches  Restarts/Perturbs    LinMoves    GenMoves  CompoundMoves   Bactracks  WeightUpdates  ScoreComputed
                             'fj_restart':    1'037                207  26'625'670           0              0           0     27'698'706     29'879'420
                    'fj_restart_compound':    2'030                210           0  21'417'011        620'041  10'398'076         77'901    360'933'665
                'fj_restart_compound_obj':      656                215           0   6'940'754        482'266   3'228'809         15'692    114'908'361
            'fj_restart_compound_perturb':    1'034                225           0  11'169'681        571'935   5'298'423         29'333    182'468'792
        'fj_restart_compound_perturb_obj':      630                226           0   6'580'201        494'713   3'042'340         14'088    110'384'151
                       'fj_restart_decay':      859                228  26'011'023           0              0           0      1'134'687     10'154'052
              'fj_restart_decay_compound':    1'584                231           0  19'364'405      3'140'118   8'111'576         20'401    283'294'965
          'fj_restart_decay_compound_obj':    1'013                241           0  11'887'565      1'949'791   4'968'273         13'204    180'284'313
      'fj_restart_decay_compound_perturb':    1'163                241           0  13'844'366      2'270'337   5'786'443         15'168    207'363'084
  'fj_restart_decay_compound_perturb_obj':      824                233           0   9'526'191      1'562'210   3'981'416         10'761    146'406'954
                   'fj_restart_decay_obj':      711                228  21'511'453           0              0           0        939'896      8'411'777
               'fj_restart_decay_perturb':    1'453                211  44'050'417           0              0           0      1'920'220     17'228'238
           'fj_restart_decay_perturb_obj':    1'288                233  39'023'753           0              0           0      1'701'850     15'251'442
                         'fj_restart_obj':    1'109                203  30'798'810           0              0           0     29'326'946     29'230'901
                     'fj_restart_perturb':    1'192                223  31'905'966           0              0           0     30'893'424     31'717'514
                 'fj_restart_perturb_obj':    1'460                223  38'579'728           0              0           0     38'945'109     41'403'608

Solution repositories    Added  Queried  Synchro
    'alternative_path':      0        0        0
      'best_solutions':      0        0        0
   'fj solution hints':  3'570        0    3'570
        'lp solutions':  2'230   21'609    2'224
                'pump':      0        0

Improving bounds shared    Num  Sym
            'default_lp':    2    0
                'max_lp':    1    0
                 'no_lp':   89    0

Clauses shared    #Exported  #Imported  #BinaryRead  #BinaryTotal
   'default_lp':      5'483     95'588          655           851
       'max_lp':      5'823     96'011          675           851
        'no_lp':     95'128     12'458          851           851

LRAT_status: NA
CpSolverResponse summary:
status: INFEASIBLE
objective: NA
best_bound: NA
integers: 355
booleans: 473
conflicts: 33731755
branches: 43467564
propagations: 2856579445
integer_propagations: 738294957
restarts: 108911
lp_iterations: 0
walltime: 4761.57
usertime: 4761.57
deterministic_time: 23084.6
gap_integral: 0

{
  "board_size": 22,
  "parity_proved": 0,
  "target": 34,
  "child_id": 2242,
  "child_count": 2640,
  "partition": "unknown_pair_x_diag_plus_twos_x_diag_minus_twos",
  "build_seconds": 0.08506131172180176,
  "workers": 4,
  "requested_seed": 2026074442,
  "effective_seed": 2026074442,
  "main_diagonal_pair": [
    5,
    14
  ],
  "pair_index": 93,
  "diag_plus_twos": 16,
  "diag_minus_twos": 16,
  "pair_excess": 10,
  "residual_certificate_slack": 102,
  "analytic_minimum_line_defect": 24,
  "analytic_defect_details": {
    "row_costs": {
      "12": 6,
      "13": 3,
      "14": 0,
      "15": 0,
      "16": 0,
      "17": 0
    },
    "column_costs": {
      "12": 6,
      "13": 3,
      "14": 0,
      "15": 0,
      "16": 0,
      "17": 0
    },
    "plus_cost": 24,
    "minus_cost": 0,
    "row_column_minimum": 0
  },
  "maximal_line_constraints": 2455,
  "analytic_infeasible": false,
  "allowed_points": 242,
  "status": "INFEASIBLE",
  "proof_method": "cp_sat_all_lines_with_certificate_profile_cuts",
  "elapsed_seconds": 4761.570137500763,
  "branches": 43467564,
  "conflicts": 33731755
}
